WARNING: for repeatability, setting FPU to use double precision
============================[ Problem Statistics ]=============================
|                                                                             |
|  Number of variables:            50                                         |
|  Number of clauses:             218                                         |
|  Parse time:                   0.00 s                                       |
|                                                                             |
============================[ Search Statistics ]==============================
| Conflicts |          ORIGINAL         |          LEARNT          | Progress |
|           |    Vars  Clauses Literals |    Limit  Clauses Lit/Cl |          |
===============================================================================
===============================================================================
restarts              : 1
conflicts             : 36             (24862 /sec)
decisions             : 52             (0.00 % random) (35912 /sec)
propagations          : 579            (399862 /sec)
conflict literals     : 130            (20.25 % deleted)
Memory used           : 20.00 MB
CPU time              : 0.001448 s

SATISFIABLE
